c ---- [ banner ] ------------------------------------------------------------
c
c Kissat SAT Solver
c 
c Copyright (c) 2021-2024 Armin Biere University of Freiburg
c Copyright (c) 2019-2021 Armin Biere Johannes Kepler University Linz
c 
c Version 4.0.1 43f02cf3e992cb44653b35e5cb26f93281552ae0
c gcc (Ubuntu 13.2.0-23ubuntu4) 13.2.0 -W -Wall -O3 -DNDEBUG
c Thu Sep 12 12:27:46 CEST 2024 Linux abryzen9 6.8.0-41-generic x86_64
c
c ---- [ parsing ] -----------------------------------------------------------
c
c opened and reading DIMACS file:
c
c   /data/artifact/AMulet2.0_artifact/exp4/cnf_sopb_64/64_64_U1_DT_HCA_Multgen_sopb.cnf
c
c parsed 'p cnf 28370 127930' header
c closing input after reading 2577087 bytes (2 MB)
c finished parsing after 0.02 seconds
c
c ---- [ options ] -----------------------------------------------------------
c
c --stable=0                       (different from default '1')
c
c ---- [ solving ] -----------------------------------------------------------
c
c  seconds switched rate     size/glue tier1  binary           remaining
c         MB reductions conflicts size  tier2     irredundant
c          level restarts redundant glue  trail           variables
c
c *  0.02 10 0 0 0  0 0   0   0 0.0 0 0 0 0 0% 12325 115603 28367 100%
c (  0.03 12 0 0 0  0 0   0   0 0.0 0 0 0 0 0% 12325 115603 28367 100%
c .  0.04 12 0 0 0  0 0   0   0 0.0 0 0 0 0 0% 12321 115603 28367 100%
c c  0.09 18 0 0 0  0 0   0   0 0.0 0 0 0 0 0% 16492 107323 26297 93%
c d  0.10 18 0 0 0  0 0   0   0 0.0 0 0 0 0 0% 12352 107323 26297 93%
c =  0.13 18 0 0 0  0 0   0   0 0.0 0 0 0 0 0% 12518 107321 26214 92%
c d  0.14 18 0 0 0  0 0   0   0 0.0 0 0 0 0 0% 12352 107321 26214 92%
c f  0.21 17 0 0 0  0 0   0   0 0.0 0 0 0 0 0% 17568 98975 29221 103%
c e  0.36 23 0 0 0  0 0   0   0 0.0 0 0 0 0 0% 10725 107863 20248 71%
c )  0.36 23 0 0 0  0 0   0   0 0.0 0 0 0 0 0% 10725 107863 20248 71%
c {  0.38 24 0 0 0  0 0   0   0 0.0 0 0 2 6 0% 10725 107863 20248 71%
c -  0.60 24 161 0 1 185 30 1001 746 3.9 21 5 3 8 21% 10758 107863 20248 71%
c -  0.81 24 192 0 2 296 35 2004 1288 4.1 24 6 3 8 23% 10822 107863 20248 71%
c c  0.99 22 259 0 2 359 42 2505 1649 4.5 26 6 3 8 23% 10861 107680 20207 71%
c d  0.99 22 259 0 2 359 42 2505 1617 4.5 26 6 3 8 23% 10779 107680 20207 71%
c u  1.01 22 259 0 2 359 42 2505 1337 4.5 26 6 3 8 23% 10786 107680 20207 71%
c v  1.03 22 259 0 2 359 42 2505 1122 4.5 26 6 3 8 23% 10787 107680 20207 71%
c w  1.05 23 259 0 2 359 42 2505 1122 4.5 26 6 3 8 23% 10787 107680 20207 71%
c x  1.06 23 259 0 2 359 42 2505 1122 4.5 26 6 3 8 23% 10787 107638 20207 71%
c =  1.11 23 259 0 2 359 42 2505 1122 4.5 26 6 3 8 23% 10863 107638 20169 71%
c
c  seconds   switched   rate       size/glue tier1    binary           remaining
c         MB  reductions conflicts       size  tier2      irredundant
c           level restarts    redundant    glue   trail           variables
c
c d  1.12 23 259 0 2 359 42 2505 1122 4.5 26 6 3 8 23% 10781 107638 20168 71%
c f  1.15 23 259 0 2 359 42 2505 1122 4.5 26 6 3 8 23% 11517 106186 20839 73%
c u  1.21 23 259 0 2 359 42 2505 1081 4.5 26 6 3 8 23% 11519 106186 20839 73%
c v  1.22 23 259 0 2 359 42 2505 1041 4.5 26 6 3 8 23% 11519 106186 20839 73%
c w  1.24 23 259 0 2 359 42 2505 1028 4.5 26 6 3 8 23% 11519 106186 20839 73%
c x  1.25 23 259 0 2 359 42 2505 1028 4.5 26 6 3 8 23% 11519 106143 20839 73%
c =  1.31 23 259 0 2 359 42 2505 1028 4.5 26 6 3 8 23% 11755 106143 20721 73%
c d  1.32 23 259 0 2 359 42 2505 1027 4.5 26 6 3 8 23% 11477 106143 20721 73%
c f  1.35 23 259 0 2 359 42 2505 1027 4.5 26 6 3 8 23% 12700 104246 21336 75%
c -  1.56 24 306 0 3 484 41 3421 1504 4.6 27 6 3 8 24% 12745 104246 21336 75%
c -  2.17 24 312 0 4 821 44 5153 2680 3.8 31 8 3 9 26% 12781 104246 21336 75%
c -  2.60 24 312 0 5 949 39 7153 3925 3.6 28 8 3 10 24% 12829 104246 21336 75%
c d  2.77 24 314 0 5 990 38 7711 4352 3.7 29 8 3 10 24% 12785 104246 21300 75%
c u  2.82 24 314 0 5 990 38 7711 3634 3.7 29 8 3 10 24% 12806 104246 21300 75%
c v  2.87 24 314 0 5 990 38 7711 3303 3.7 29 8 3 10 24% 12806 104246 21300 75%
c w  2.94 24 314 0 5 990 38 7711 3296 3.7 29 8 3 10 24% 12806 104246 21300 75%
c =  3.10 24 314 0 5 990 38 7711 3296 3.7 29 8 3 10 24% 13788 104246 20809 73%
c d  3.11 24 314 0 5 990 38 7711 3277 3.7 29 8 3 10 24% 12652 104246 20809 73%
c t  3.13 24 314 0 5 990 38 7711 3277 3.7 29 8 3 10 24% 12643 104246 20809 73%
c f  3.19 24 314 0 5 990 38 7711 3277 3.7 29 8 3 10 24% 13075 103582 21028 74%
c
c  seconds   switched   rate       size/glue tier1     binary           remaining
c         MB  reductions conflicts       size  tier2       irredundant
c           level restarts    redundant    glue    trail           variables
c
c c  3.28 24 314 0 5 990 38 7711 3277 3.7 29 8 3 10 24% 13079 103566 21025 74%
c d  3.29 24 314 0 5 990 38 7711 3277 3.7 29 8 3 10 24% 13073 103566 21025 74%
c u  3.33 24 314 0 5 990 38 7711 3151 3.7 29 8 3 10 24% 13073 103566 21025 74%
c v  3.36 24 314 0 5 990 38 7711 3086 3.7 29 8 3 10 24% 13073 103566 21025 74%
c w  3.42 24 314 0 5 990 38 7711 3081 3.7 29 8 3 10 24% 13073 103566 21025 74%
c x  3.47 24 314 0 5 990 38 7711 3081 3.7 29 8 3 10 24% 13073 102823 21025 74%
c =  3.62 24 314 0 5 990 38 7711 3081 3.7 29 8 3 10 24% 13819 102823 20652 73%
c d  3.63 24 314 0 5 990 38 7711 3075 3.7 29 8 3 10 24% 12898 102823 20652 73%
c t  3.65 24 314 0 5 990 38 7711 3075 3.7 29 8 3 10 24% 12862 102823 20652 73%
c f  3.71 24 314 0 5 990 38 7711 3075 3.7 29 8 3 10 24% 15213 99291 21829 77%
c -  4.21 24 336 0 6 1117 37 9389 3793 3.9 30 8 2 10 24% 15288 99291 21829 77%
c o  4.36 24 333 0 6 1166 36 10005 4362 3.9 30 8 2 10 24% 15300 99291 21829 77%
c -  5.10 24 337 0 7 1347 36 11840 5138 4.2 32 8 2 10 25% 15347 99291 21829 77%
c s  5.27 24 356 0 7 1371 35 12512 5722 4.2 32 8 2 10 25% 15367 96220 21829 77%
c e  5.41 24 356 0 7 1371 35 12512 5722 4.2 32 8 2 10 25% 14455 96781 21030 74%
c s  5.42 24 356 0 7 1371 35 12512 5722 4.2 32 8 2 10 25% 14469 96036 21030 74%
c e  5.44 24 356 0 7 1371 35 12512 5722 4.2 32 8 2 10 25% 14198 96245 20896 74%
c ^  5.44 24 356 0 7 1371 35 12512 5722 4.2 32 8 2 10 25% 14198 96245 20896 74%
c -  5.96 24 382 0 8 1518 37 14486 6102 4.0 33 8 2 10 25% 14246 96245 20896 74%
c d  6.50 24 364 0 8 1620 36 15794 6980 4.2 35 8 2 10 25% 13837 96245 20605 73%
c
c  seconds   switched    rate        size/glue tier1     binary          remaining
c         MB  reductions   conflicts       size  tier2       irredundant
c           level  restarts     redundant    glue    trail          variables
c
c u  6.56 24 364 0 8 1620 36 15794 6123 4.2 35 8 2 10 25% 13851 96245 20605 73%
c v  6.62 24 364 0 8 1620 36 15794 5239 4.2 35 8 2 10 25% 13855 96245 20605 73%
c w  6.73 24 364 0 8 1620 36 15794 5238 4.2 35 8 2 10 25% 13855 96245 20605 73%
c x  6.78 24 364 0 8 1620 36 15794 5238 4.2 35 8 2 10 25% 13855 96064 20605 73%
c =  7.02 24 364 0 8 1620 36 15794 5238 4.2 35 8 2 10 25% 14743 96064 20161 71%
c d  7.04 24 364 0 8 1620 36 15794 5167 4.2 35 8 2 10 25% 13744 96064 20157 71%
c t  7.06 24 364 0 8 1620 36 15794 5167 4.2 35 8 2 10 25% 13694 96064 20157 71%
c f  7.15 24 364 0 8 1620 36 15794 5167 4.2 35 8 2 10 25% 13841 95711 20244 71%
c b  7.18 24 364 0 8 1620 36 15794 5167 4.2 35 8 2 10 25% 13841 95711 20242 71%
c u  7.20 24 364 0 8 1620 36 15794 4978 4.2 35 8 2 10 25% 13843 95711 20242 71%
c v  7.24 24 364 0 8 1620 36 15794 4877 4.2 35 8 2 10 25% 13843 95711 20242 71%
c w  7.36 25 364 0 8 1620 36 15794 4870 4.2 35 8 2 10 25% 13843 95711 20242 71%
c x  7.41 25 364 0 8 1620 36 15794 4870 4.2 35 8 2 10 25% 13845 93944 20242 71%
c =  7.66 25 364 0 8 1620 36 15794 4870 4.2 35 8 2 10 25% 15397 93944 19466 69%
c d  7.67 25 364 0 8 1620 36 15794 4806 4.2 35 8 2 10 25% 13224 93944 19466 69%
c t  7.70 25 364 0 8 1620 36 15794 4806 4.2 35 8 2 10 25% 13218 93944 19466 69%
c f  7.73 25 364 0 8 1620 36 15794 4806 4.2 35 8 2 10 25% 13220 93940 19467 69%
c -  8.04 25 349 0 9 1675 34 17314 5470 4.1 33 8 2 9 26% 13235 93940 19467 69%
c o  8.82 25 337 0 9 1893 33 20005 7854 4.1 34 8 2 9 26% 13281 93940 19467 69%
c -  8.92 25 335 0 10 1914 33 20316 7192 4.2 34 8 2 9 26% 13285 93940 19467 69%
c
c  seconds   switched     rate        size/glue tier1    binary          remaining
c         MB   reductions   conflicts       size  tier2      irredundant
c           level   restarts     redundant    glue   trail          variables
c
c - 10.19 25 327 0 11 2236 32 23478 8714 4.2 36 8 2 9 27% 13353 93940 19467 69%
c s 10.72 25 329 0 11 2365 32 25016 10056 4.3 36 8 2 9 27% 13391 90399 19467 69%
c e 10.86 25 329 0 11 2365 32 25016 10056 4.3 36 8 2 9 27% 10180 94357 17702 62%
c s 10.87 25 329 0 11 2365 32 25016 10056 4.3 36 8 2 9 27% 10188 93991 17702 62%
c e 10.89 25 329 0 11 2365 32 25016 10056 4.3 36 8 2 9 27% 10094 94093 17660 62%
c ^ 10.89 25 329 0 11 2365 32 25016 10056 4.3 36 8 2 9 27% 10094 94093 17660 62%
c - 11.25 25 325 0 12 2441 31 26795 9162 4.2 35 8 2 9 27% 10107 94093 17660 62%
c c 11.36 25 324 0 12 2447 31 26922 9282 4.2 35 8 2 9 27% 10154 93862 17632 62%
c d 11.37 25 324 0 12 2447 31 26922 9241 4.2 35 8 2 9 27% 9942 93862 17538 62%
c u 11.42 25 324 0 12 2447 31 26922 8159 4.2 35 8 2 9 27% 9959 93862 17538 62%
c v 11.49 25 324 0 12 2447 31 26922 7126 4.2 35 8 2 9 27% 9960 93862 17538 62%
c w 11.50 25 324 0 12 2447 31 26922 7124 4.2 35 8 2 9 27% 9960 93862 17538 62%
c x 11.60 25 324 0 12 2447 31 26922 7113 4.2 35 8 2 9 27% 9961 92590 17538 62%
c = 11.92 25 324 0 12 2447 31 26922 7113 4.2 35 8 2 9 27% 12869 92590 16084 57%
c d 11.93 25 324 0 12 2447 31 26922 6944 4.2 35 8 2 9 27% 9869 92590 16082 57%
c t 11.95 25 324 0 12 2447 31 26922 6944 4.2 35 8 2 9 27% 9862 92590 16082 57%
c f 12.03 25 324 0 12 2447 31 26922 6944 4.2 35 8 2 9 27% 9935 92367 16125 57%
c u 12.09 25 324 0 12 2447 31 26922 6642 4.2 35 8 2 9 27% 9939 92367 16125 57%
c v 12.13 25 324 0 12 2447 31 26922 6500 4.2 35 8 2 9 27% 9939 92367 16125 57%
c w 12.14 25 324 0 12 2447 31 26922 6496 4.2 35 8 2 9 27% 9939 92367 16125 57%
c
c  seconds   switched     rate        size/glue tier1    binary         remaining
c         MB   reductions   conflicts       size  tier2     irredundant
c           level   restarts     redundant    glue   trail         variables
c
c x 12.28 25 324 0 12 2447 31 26922 6496 4.2 35 8 2 9 27% 9940 86258 16125 57%
c = 12.57 25 324 0 12 2447 31 26922 6496 4.2 35 8 2 9 27% 11030 86258 15580 55%
c d 12.58 25 324 0 12 2447 31 26922 6450 4.2 35 8 2 9 27% 9915 86258 15579 55%
c f 12.63 25 324 0 12 2447 31 26922 6450 4.2 35 8 2 9 27% 9919 86248 15581 55%
c - 13.23 25 316 0 13 2604 30 30259 8260 4.1 33 8 2 9 27% 9980 86248 15581 55%
c - 13.71 25 308 0 14 2729 28 33867 10115 4.0 32 8 2 8 26% 10017 86248 15581 55%
c - 14.67 25 291 0 15 3018 27 37610 11690 4.0 32 8 2 8 26% 10083 86248 15581 55%
c o 15.05 25 285 0 15 3123 26 40908 14552 3.9 30 8 2 8 25% 10136 86248 15581 55%
c c 15.23 25 286 0 15 3153 26 41249 14862 3.9 30 8 2 8 25% 10230 85615 15469 55%
c d 15.24 25 286 0 15 3153 26 41249 14539 3.9 30 8 2 8 25% 10006 85615 15469 55%
c u 15.31 25 286 0 15 3153 26 41249 12341 3.9 30 8 2 8 25% 10037 85615 15469 55%
c v 15.37 25 286 0 15 3153 26 41249 11794 3.9 30 8 2 8 25% 10038 85615 15469 55%
c w 15.42 25 286 0 15 3153 26 41249 11793 3.9 30 8 2 8 25% 10038 85615 15469 55%
c x 15.48 25 286 0 15 3153 26 41249 11791 3.9 30 8 2 8 25% 10038 81571 15469 55%
c = 15.69 25 286 0 15 3153 26 41249 11791 3.9 30 8 2 8 25% 10046 81571 15465 55%
c d 15.70 25 286 0 15 3153 26 41249 11759 3.9 30 8 2 8 25% 10018 81571 15455 54%
c t 15.72 25 286 0 15 3153 26 41249 11759 3.9 30 8 2 8 25% 10014 81571 15455 54%
c f 15.74 25 286 0 15 3153 26 41249 11759 3.9 30 8 2 8 25% 10018 81561 15457 54%
c c 15.80 25 286 0 15 3153 26 41249 11724 3.9 30 8 2 8 25% 10024 81529 15453 54%
c d 15.81 25 286 0 15 3153 26 41249 11724 3.9 30 8 2 8 25% 10016 81529 15453 54%
c
c  seconds   switched     rate         size/glue tier1    binary          remaining
c         MB   reductions   conflicts        size  tier2      irredundant
c           level   restarts      redundant    glue   trail          variables
c
c u 15.86 25 286 0 15 3153 26 41249 11295 3.9 30 8 2 8 25% 10027 81529 15453 54%
c v 15.93 25 286 0 15 3153 26 41249 10453 3.9 30 8 2 8 25% 10027 81529 15453 54%
c w 15.97 25 286 0 15 3153 26 41249 10446 3.9 30 8 2 8 25% 10027 81529 15453 54%
c x 16.03 25 286 0 15 3153 26 41249 10446 3.9 30 8 2 8 25% 10027 80126 15453 54%
c = 16.25 25 286 0 15 3153 26 41249 10446 3.9 30 8 2 8 25% 10125 80126 15404 54%
c d 16.25 25 286 0 15 3153 26 41249 10385 3.9 30 8 2 8 25% 10011 80126 15402 54%
c t 16.27 25 286 0 15 3153 26 41249 10385 3.9 30 8 2 8 25% 10010 80126 15402 54%
c - 16.35 25 285 0 16 3166 26 41483 9340 3.9 30 8 2 7 25% 10022 80126 15402 54%
c - 17.33 25 280 0 17 3487 26 45483 11361 3.8 30 8 2 7 25% 10078 80126 15402 54%
c - 18.32 25 277 0 18 3812 26 49606 13361 3.8 30 8 2 7 25% 10149 80125 15402 54%
c s 18.96 25 272 0 18 4004 26 52117 15519 3.8 30 8 2 7 25% 10210 77950 15402 54%
c e 19.08 25 272 0 18 4004 26 52117 15519 3.8 30 8 2 7 25% 9360 79393 14806 52%
c s 19.09 25 272 0 18 4004 26 52117 15519 3.8 30 8 2 7 25% 9365 78959 14806 52%
c e 19.10 25 272 0 18 4004 26 52117 15519 3.8 30 8 2 7 25% 9261 79124 14754 52%
c ^ 19.10 25 272 0 18 4004 26 52117 15519 3.8 30 8 2 7 25% 9261 79124 14754 52%
c - 19.52 25 267 0 19 4122 26 53848 13788 3.8 30 8 2 7 26% 9275 79124 14754 52%
c - 20.30 25 265 0 20 4381 25 58206 15551 3.8 30 8 2 7 25% 9351 79124 14754 52%
c d 20.32 25 263 0 20 4382 25 58883 15847 3.7 29 8 2 7 25% 9292 79124 14715 52%
c u 20.40 25 263 0 20 4382 25 58883 13428 3.7 29 8 2 7 25% 9337 79124 14715 52%
c v 20.49 25 263 0 20 4382 25 58883 12014 3.7 29 8 2 7 25% 9347 79124 14715 52%
c
c  seconds   switched     rate         size/glue tier1    binary         remaining
c         MB   reductions   conflicts        size  tier2     irredundant
c           level   restarts      redundant    glue   trail         variables
c
c w 20.49 25 263 0 20 4382 25 58883 11910 3.7 29 8 2 7 25% 9347 79124 14715 52%
c x 20.63 25 263 0 20 4382 25 58883 11905 3.7 29 8 2 7 25% 9349 77717 14715 52%
c = 21.00 25 263 0 20 4382 25 58883 11905 3.7 29 8 2 7 25% 10561 77716 14109 50%
c d 21.01 25 263 0 20 4382 25 58883 11508 3.7 29 8 2 7 25% 9236 77716 14105 50%
c t 21.03 25 263 0 20 4382 25 58883 11508 3.7 29 8 2 7 25% 9225 77716 14105 50%
c f 21.10 25 263 0 20 4382 25 58883 11508 3.7 29 8 2 7 25% 9222 77674 14113 50%
c c 21.17 25 263 0 20 4382 25 58883 11491 3.7 29 8 2 7 25% 9239 77602 14104 50%
c d 21.17 25 263 0 20 4382 25 58883 11491 3.7 29 8 2 7 25% 9221 77602 14104 50%
c u 21.24 25 263 0 20 4382 25 58883 10734 3.7 29 8 2 7 25% 9228 77602 14104 50%
c v 21.30 25 263 0 20 4382 25 58883 10454 3.7 29 8 2 7 25% 9230 77602 14104 50%
c w 21.31 25 263 0 20 4382 25 58883 10433 3.7 29 8 2 7 25% 9230 77602 14104 50%
c x 21.50 25 263 0 20 4382 25 58883 10433 3.7 29 8 2 7 25% 9230 73736 14104 50%
c = 21.89 25 263 0 20 4382 25 58883 10433 3.7 29 8 2 7 25% 10046 73734 13696 48%
c d 21.89 25 263 0 20 4382 25 58883 10222 3.7 29 8 2 7 25% 9186 73734 13696 48%
c t 21.92 25 263 0 20 4382 25 58883 10222 3.7 29 8 2 7 25% 9185 73734 13696 48%
c - 22.44 25 255 0 21 4540 24 62678 12001 3.6 28 8 2 7 25% 9237 73734 13696 48%
c - 23.19 25 248 0 22 4777 23 67260 14118 3.6 27 8 2 7 25% 9304 73733 13696 48%
c o 23.75 25 248 0 22 4945 23 70910 17355 3.5 27 8 2 7 25% 9335 73732 13696 48%
c - 23.89 25 247 0 23 5000 23 71950 15985 3.5 27 8 2 7 25% 9360 73732 13696 48%
c - 24.93 25 243 0 24 5423 23 76745 17639 3.5 27 8 2 7 25% 9455 73732 13696 48%
c
c  seconds   switched     rate         size/glue tier1    binary         remaining
c         MB   reductions   conflicts        size  tier2     irredundant
c           level   restarts      redundant    glue   trail         variables
c
c d 25.61 25 238 0 24 5651 22 79960 19909 3.4 27 8 2 7 25% 9258 73731 13573 48%
c u 25.72 25 238 0 24 5651 22 79960 16583 3.4 27 8 2 7 25% 9300 73731 13573 48%
c v 25.81 25 238 0 24 5651 22 79960 15776 3.4 27 8 2 7 25% 9301 73731 13573 48%
c w 25.86 25 238 0 24 5651 22 79960 15776 3.4 27 8 2 7 25% 9301 73731 13573 48%
c x 25.94 25 238 0 24 5651 22 79960 15776 3.4 27 8 2 7 25% 9302 73525 13573 48%
c = 26.30 25 238 0 24 5651 22 79960 15776 3.4 27 8 2 7 25% 9920 73507 13263 47%
c d 26.31 25 238 0 24 5651 22 79960 15126 3.4 27 8 2 7 25% 9195 73507 13263 47%
c t 26.33 25 238 0 24 5651 22 79960 15126 3.4 27 8 2 7 25% 9182 73507 13263 47%
c u 26.46 25 238 0 24 5651 22 79960 14279 3.4 27 8 2 7 25% 9183 73507 13263 47%
c v 26.55 25 238 0 24 5651 22 79960 13245 3.4 27 8 2 7 25% 9183 73507 13263 47%
c w 26.62 25 238 0 24 5651 22 79960 13244 3.4 27 8 2 7 25% 9183 73507 13263 47%
c x 26.71 25 238 0 24 5651 22 79960 13239 3.4 27 8 2 7 25% 9183 69345 13263 47%
c = 27.07 25 238 0 24 5651 22 79960 13239 3.4 27 8 2 7 25% 9389 69345 13160 46%
c d 27.08 25 238 0 24 5651 22 79960 13113 3.4 27 8 2 7 25% 9165 69345 13160 46%
c - 27.59 25 236 0 25 5830 22 81643 12962 3.4 27 8 2 7 25% 9165 69344 13160 46%
c - 28.91 25 233 0 26 6356 23 86644 15491 3.4 27 8 2 7 25% 9175 69343 13160 46%
c - 30.94 25 228 0 27 7124 23 91743 17806 3.5 28 8 2 6 26% 9188 69341 13160 46%
c s 32.04 25 225 0 27 7498 24 95789 21434 3.5 28 8 2 6 26% 9213 67539 13160 46%
c e 32.17 25 225 0 27 7498 24 95789 21434 3.5 28 8 2 6 26% 6357 74700 11622 41%
c 2 32.17 25 225 0 27 7498 24 95789 21434 3.5 28 8 2 6 26% 6353 74700 11622 41%
c
c  seconds   switched     rate         size/glue tier1    binary         remaining
c         MB   reductions   conflicts        size  tier2     irredundant
c           level   restarts      redundant    glue   trail         variables
c
c s 32.19 25 225 0 27 7498 24 95789 21434 3.5 28 8 2 6 26% 6354 74448 11622 41%
c e 32.20 25 225 0 27 7498 24 95789 21434 3.5 28 8 2 6 26% 6335 74504 11605 41%
c ^ 32.20 25 225 0 27 7498 24 95789 21434 3.5 28 8 2 6 26% 6335 74504 11605 41%
c - 32.60 25 224 0 28 7684 24 96940 15987 3.5 28 8 2 6 26% 6348 74503 11605 41%
c - 33.74 25 218 0 29 8137 23 102231 16823 3.4 28 8 1 6 26% 6379 74497 11605 41%
c c 34.72 25 216 0 29 8513 24 104609 19004 3.4 28 8 1 6 27% 6394 74407 11588 41%
c d 34.72 25 216 0 29 8513 24 104609 18882 3.4 28 8 1 6 27% 6360 74407 11588 41%
c u 34.79 25 216 0 29 8513 24 104609 16477 3.4 28 8 1 6 27% 6368 74407 11588 41%
c v 34.90 27 216 0 29 8513 24 104609 13631 3.4 28 8 1 6 27% 6371 74407 11588 41%
c w 35.16 27 216 0 29 8513 24 104609 13611 3.4 28 8 1 6 27% 6371 74407 11588 41%
c x 35.29 27 216 0 29 8513 24 104609 13606 3.4 28 8 1 6 27% 6371 74174 11588 41%
c = 35.99 27 216 0 29 8513 24 104609 13606 3.4 28 8 1 6 27% 6397 74148 11572 41%
c d 36.00 27 216 0 29 8513 24 104609 13590 3.4 28 8 1 6 27% 6361 74148 11572 41%
c t 36.01 27 216 0 29 8513 24 104609 13590 3.4 28 8 1 6 27% 6357 74148 11572 41%
c u 36.15 27 216 0 29 8513 24 104609 12914 3.4 28 8 1 6 27% 6357 74148 11572 41%
c v 36.22 27 216 0 29 8513 24 104609 12184 3.4 28 8 1 6 27% 6358 74148 11572 41%
c w 36.63 27 216 0 29 8513 24 104609 12035 3.4 28 8 1 6 27% 6358 74148 11572 41%
c t 37.35 27 216 0 29 8513 24 104609 12035 3.4 28 8 1 6 27% 6357 74148 11572 41%
c - 38.00 27 214 0 30 8717 23 107620 12344 3.4 28 8 1 6 27% 6360 74148 11572 41%
c o 39.03 27 212 0 30 9107 24 110941 15455 3.4 28 8 1 6 27% 6365 74146 11572 41%
c
c  seconds   switched     rate          size/glue tier1    binary         remaining
c         MB   reductions   conflicts         size  tier2     irredundant
c           level   restarts       redundant    glue   trail         variables
c
c - 39.61 27 212 0 31 9322 24 113097 14866 3.4 28 8 1 6 27% 6373 74146 11572 41%
c i 39.85 27 210 0 31 9412 24 114609 16159 3.3 28 8 1 6 27% 6389 74146 11571 41%
c - 41.00 27 207 0 32 9873 24 118664 16815 3.3 28 8 1 6 27% 6396 74143 11571 41%
c - 42.42 27 204 0 33 10379 23 124320 18495 3.3 28 9 1 6 28% 6411 74143 11571 41%
c i 42.72 27 205 0 33 10473 23 125922 19875 3.3 28 9 1 6 28% 6417 74141 11570 41%
c - 44.04 27 202 0 34 10901 23 130064 19994 3.3 29 9 1 5 28% 6423 74141 11570 41%
c i 44.42 27 201 0 34 11031 23 131255 21100 3.3 29 9 1 5 28% 6432 74140 11569 41%
c i 44.61 27 200 0 34 11092 23 131804 21586 3.3 29 9 1 5 28% 6439 74140 11568 41%
c c 45.00 27 200 0 34 11209 23 132880 22610 3.3 29 9 1 5 28% 6437 74074 11556 41%
c d 45.00 27 200 0 34 11209 23 132880 22468 3.3 29 9 1 5 28% 6417 74070 11556 41%
c d 45.01 27 200 0 34 11209 23 132880 22467 3.3 29 9 1 5 28% 6413 74070 11554 41%
c u 45.10 27 200 0 34 11209 23 132880 19858 3.3 29 9 1 5 28% 6448 74070 11553 41%
c v 45.24 27 200 0 34 11209 23 132880 16737 3.3 29 9 1 5 28% 6454 74070 11552 41%
c w 45.50 27 200 0 34 11209 23 132880 16713 3.3 29 9 1 5 28% 6454 74070 11552 41%
c x 45.69 27 200 0 34 11209 23 132880 16699 3.3 29 9 1 5 28% 6464 72980 11552 41%
c d 45.70 27 200 0 34 11209 23 132880 16671 3.3 29 9 1 5 28% 6460 72980 11549 41%
c t 45.71 27 200 0 34 11209 23 132880 16671 3.3 29 9 1 5 28% 6423 72980 11549 41%
c u 45.86 27 200 0 34 11209 23 132880 15796 3.3 29 9 1 5 28% 6432 72980 11547 41%
c v 45.94 27 200 0 34 11209 23 132880 15077 3.3 29 9 1 5 28% 6435 72980 11547 41%
c w 46.24 27 200 0 34 11209 23 132880 14566 3.3 29 9 1 5 28% 6435 72980 11547 41%
c
c  seconds   switched      rate          size/glue tier1    binary         remaining
c         MB   reductions    conflicts         size  tier2     irredundant
c           level   restarts        redundant    glue   trail         variables
c
c x 46.39 27 200 0 34 11209 23 132880 14549 3.3 29 9 1 5 28% 6437 72865 11547 41%
c d 47.12 27 200 0 34 11209 23 132880 14540 3.3 29 9 1 5 28% 6434 72865 11546 41%
c t 47.14 27 200 0 34 11209 23 132880 14540 3.3 29 9 1 5 28% 6426 72865 11546 41%
c i 47.16 27 200 0 34 11209 23 132880 14540 3.3 29 9 1 5 28% 6426 72865 11546 41%
c i 47.31 27 199 0 34 11264 23 133488 15103 3.3 29 9 1 5 28% 6428 72865 11545 41%
c i 47.43 27 199 0 34 11296 23 133685 15296 3.3 29 9 1 5 28% 6429 72865 11544 41%
c - 48.05 27 197 0 35 11509 23 135896 14643 3.3 29 9 1 5 28% 6424 72862 11544 41%
c i 49.18 27 193 0 35 11894 23 140026 18584 3.3 29 9 1 5 28% 6429 72860 11543 41%
c i 49.59 27 192 0 35 12030 23 141491 19975 3.2 29 9 1 5 29% 6435 72860 11542 41%
c - 49.66 27 192 0 36 12045 23 141814 17094 3.2 29 9 1 5 29% 6430 72860 11542 41%
c i 49.71 27 192 0 36 12062 23 142113 17349 3.2 29 9 1 5 29% 6435 72860 11541 41%
c i 49.77 27 191 0 36 12077 23 142279 17510 3.2 29 9 1 5 29% 6435 72860 11539 41%
c i 49.80 27 191 0 36 12093 23 142369 17593 3.2 29 9 1 5 29% 6437 72860 11538 41%
c i 50.25 27 190 0 36 12254 23 143662 18827 3.2 29 9 1 5 29% 6441 72858 11537 41%
c i 50.28 27 190 0 36 12267 23 143852 18977 3.2 29 9 1 5 29% 6446 72858 11536 41%
c i 50.32 27 190 0 36 12282 23 143992 19108 3.2 29 9 1 5 29% 6450 72858 11535 41%
c i 50.44 27 189 0 36 12323 23 144754 19813 3.2 29 9 1 5 29% 6453 72858 11534 41%
c i 50.88 27 187 0 36 12443 22 146949 21877 3.2 28 9 1 5 29% 6455 72858 11533 41%
c i 51.06 27 186 0 36 12499 22 147627 22515 3.2 28 9 1 5 29% 6460 72858 11532 41%
c i 51.12 27 186 0 36 12522 22 147765 22644 3.2 28 9 1 5 29% 6462 72858 11528 41%
c
c  seconds   switched      rate          size/glue tier1    binary         remaining
c         MB   reductions    conflicts         size  tier2     irredundant
c           level   restarts        redundant    glue   trail         variables
c
c - 51.14 27 186 0 37 12526 22 147814 18801 3.2 28 9 1 5 29% 6432 72858 11528 41%
c i 51.48 27 185 0 37 12627 22 149457 20321 3.2 28 9 1 5 29% 6439 72858 11527 41%
c i 51.53 27 185 0 37 12640 22 149758 20594 3.2 28 9 1 5 29% 6445 72858 11526 41%
c i 51.60 27 184 0 37 12664 22 150085 20904 3.2 28 9 1 5 29% 6448 72856 11521 41%
c i 51.69 27 184 0 37 12694 22 150582 21380 3.1 28 9 1 5 29% 6451 72856 11519 41%
c i 51.73 27 183 0 37 12705 22 151312 22032 3.1 28 9 1 5 29% 6455 72856 11516 41%
c i 51.82 27 182 0 37 12759 22 152432 23021 3.1 28 9 1 5 29% 6461 72856 11515 41%
c i 51.86 27 181 0 37 12776 21 152778 23320 3.1 28 9 1 5 29% 6467 72856 11514 41%
c i 51.96 27 180 0 37 12812 21 153636 24123 3.1 28 9 1 5 28% 6471 72856 11513 41%
c - 52.00 27 180 0 38 12821 21 153896 19602 3.1 28 9 1 6 28% 6428 72856 11513 41%
c i 52.16 27 177 0 38 12882 21 155757 21295 3.1 28 9 1 6 28% 6434 72856 11512 41%
c 2 52.24 27 174 0 38 12909 21 157909 23114 3.1 27 9 1 6 28% 6451 72856 11511 41%
c s 52.25 27 174 0 38 12909 21 157909 23114 3.1 27 9 1 6 28% 6451 72646 11511 41%
c e 52.40 27 174 0 38 12909 21 157909 23114 3.1 27 9 1 6 28% 3682 84317 9882 35%
c 2 52.40 27 174 0 38 12909 21 157909 23114 3.1 27 9 1 6 28% 3680 84317 9882 35%
c s 52.43 27 174 0 38 12909 21 157909 23114 3.1 27 9 1 6 28% 3682 83699 9882 35%
c e 52.46 27 174 0 38 12909 21 157909 23114 3.1 27 9 1 6 28% 3635 83956 9815 35%
c ^ 52.46 27 174 0 38 12909 21 157909 23114 3.1 27 9 1 6 28% 3635 83956 9815 35%
c i 52.47 27 174 0 38 12911 20 158013 15815 3.1 27 9 1 6 28% 3638 83954 9813 35%
c i 52.50 27 173 0 38 12939 20 158595 16291 3.1 27 9 1 6 27% 3649 83949 9812 35%
c
c  seconds   switched      rate          size/glue tier1    binary        remaining
c         MB   reductions    conflicts         size  tier2     irredundant
c           level   restarts        redundant    glue   trail        variables
c
c i 52.50 27 173 0 38 12940 20 158654 16333 3.1 27 9 1 6 27% 3651 83949 9811 35%
c - 52.54 27 170 0 39 12953 20 160061 14300 3.1 27 9 1 6 27% 3658 83896 9811 35%
c i 52.54 27 170 0 39 12953 20 160092 14320 3.1 27 9 1 6 27% 3660 83895 9809 35%
c i 52.55 27 170 0 39 12954 20 160163 14378 3.1 27 9 1 6 27% 3663 83895 9807 35%
c i 52.56 27 170 0 39 12958 20 160552 14682 3.1 27 9 1 6 27% 3671 83895 9802 35%
c i 52.56 27 170 0 39 12958 20 160555 14681 3.1 27 9 1 6 27% 3673 83895 9801 35%
c } 52.56 27 170 0 39 12958 20 160572 14689 3.1 27 9 1 6 27% 3678 83894 9652 34%
c 0 52.56 27 170 0 39 12958 20 160572 14689 3.1 27 9 1 6 27% 3678 83894 9652 34%
c
c ---- [ result ] ------------------------------------------------------------
c
s UNSATISFIABLE
c
c ---- [ profiling ] ---------------------------------------------------------
c
c          37.98   72.26 %  search
c          37.98   72.26 %  focused
c          14.20   27.02 %  simplify
c          13.38   25.46 %  probe
c           5.58   10.61 %  sweep
c           5.45   10.36 %  vivify
c           1.00    1.89 %  eliminate
c           0.82    1.55 %  factor
c           0.65    1.24 %  congruence
c           0.64    1.22 %  substitute
c           0.33    0.62 %  preprocess
c           0.27    0.51 %  reduce
c           0.18    0.35 %  subsume
c           0.17    0.32 %  transitive
c           0.14    0.27 %  fastel
c           0.08    0.16 %  backbone
c           0.03    0.06 %  lucky
c           0.02    0.04 %  parse
c =============================================
c          52.56  100.00 %  total
c
c ---- [ statistics ] --------------------------------------------------------
c
c chronological:                         5553                3 %  conflicts
c conflicts:                           160572             3054.85 per second
c congruent:                             2296                8 %  variables
c decisions:                          3326745               20.72 per conflict
c eliminated:                           15612               55 %  variables
c factored:                              5832               21 %  variables
c fast_eliminated:                       8973               57 %  eliminated
c fast_strengthened:                      178                7 %  per strengthened
c fast_subsumed:                          112                1 %  per subsumed
c iterations:                              35                0 %  variables
c propagations:                     143200376          2724363    per second
c reductions:                              39             4117    interval
c reordered:                                5            32114    interval
c restarts:                             12958               12    interval
c strengthened:                          2557                0 %  checks
c substituted:                           8723               31 %  variables
c subsumed:                             13098                0 %  checks
c switched:                                 0                0    interval
c vivified:                             75098               12 %  checks
c
c ---- [ glue usage ] --------------------------------------------------------
c
c focused glue 1   used 252279 clauses 57.65% accumulated 57.65% tier1
c focused glue 2   used  85781 clauses 19.60% accumulated 77.26%
c focused glue 3-4 used  44180 clauses 10.10% accumulated 87.35%
c focused glue 5   used  11197 clauses  2.56% accumulated 89.91%
c focused glue 6   used   8176 clauses  1.87% accumulated 91.78% tier2
c
c ---- [ resources ] ---------------------------------------------------------
c
c maximum-resident-set-size:         28188672 bytes         27 MB
c process-time:                            53s              52.56 seconds
c
c ---- [ shutting down ] -----------------------------------------------------
c
c exit 20
